advent-of-code-2022/12.txt
abccccccccaaaaccccaaacaccccaaaaaacccccccccccaaaccccccccccaaaaaaacccccccccccccccccccccccccccccacaaaccccccccccccccccccccccccccccccccccccccccaaaaa
abccccccccaaaaccaaaaaaaacccaaaaaacccccccccccaaaacccccccccaaaaaaaaaacccccccccccccccaaccccccccaaaaaccaaaccaacccccccccccccccccccccccccccccccaaaaaa
abcccccccccaacccaaaaaaaaccccaaaaacccccccccccaaaacccccccaaaaaaaaaaaaaccccccccccaaaaaaccccccccaaaaaaaaaaaaaaccccccccccccccccaaaccccccccccccaaaaaa
abcccccccccccccccaaaaaccccccaacaaccccaacccccaaacccccccaaaaaaaaaaaaaaccccccccccaaaaaaacccccccccaaaaacaaaaaaccccccccccccccccaaccccccccccccccccaaa
abccccccccccccccccaaaaaccccccccccaaccaacccccccccccccccaaaaacaaaacacacccccaacccaaaaaaaacccccccaaaaacaaaaaaaccccccccccccccccaaacccccccccccccccaaa
abcccccccccccccccaaaaaaccccccccccaaaaaaccccccccccccccccaaaaaaaacaaaaacaaaaaccccaaaaaaacccccccaacaacaaaaaaaaccccccccaaaaccaakcccccccccccccccccaa
abcccccccccccccccaaaccacccccccccccaaaaaaacccccccaaaccccccaaaaaacaaaaaccaaaaaccaaaaaaccccccccccccaacaaaaaaaacccccccccaaaakkkklllcccccccccccccccc
abcccccaaaccccccccccccccccccccccccaaaaaaacccccccaaacacccaaaaaaaaaaaaacaaaaaaccaaaaaacccccccccccccccccaaaccccccccccccaaakkkkkllllcccccccaacccccc
abccccaaaacccccccccccccccccccccccaaaaaacccccccaccaaaaaccaaaaaaaaaaaaacaaaaccccccccaaccccccccccccccccccaaccccccccccccckkkkkkpllllccccaaaaaaccccc
abccccaaaacccccccccccccccccaaacccaaaaaacccccccaaaaaaaacccaaaaacaaaaaacccaaaccccccccccccccccccccccccccccccccccccccccckkkkpppppplllcccaaaaacccccc
abcccccaaaccccccccccccccccaaaacccccccaaccccccccaaaaacccccaaaccccaaacccccccccccccccccccccccccaaccccccccccccccccccjjjkkkkpppppppplllcccaaaaaacccc
abccccccccccccccccccccccccaaaaccccccccccccccccccaaaaacccccccccccccccccccccccccccccccccccccccaaaaaccccccccccccjjjjjjkkkrppppuppplllccccaaaaacccc
abccccccccccccccaaaccccccccaaaccccccccccccccccccaacaaccccccccccccccccccccccaaaccccccccaacccaaaaaccccccccccccjjjjjjjjrrrpuuuuuppplllcccccaaacccc
abcccccaaccaacccaaacacccccccccccccccccccccccccacaaaaccccccccccccccccccccccaaaaaaccccaaaacccaaaaaaccaccccccccjjjrrrrrrrrruuuuuppplllmcccddcccccc
abcccccaaaaaacaaaaaaaaccccccccccccccccccccccccaacaaaccccccccccccccccccccccaaaaaaccccaaaaaacccaaaaccaaacaaacjjjrrrrrrrrruuuxuuupqqlmmmmddddccccc
abcccccaaaaaccaaaaaaaaccccccccccccccccccccccccaaaaaccccaacccccccccccccccccaaaaaacccccaaaacccaacccccaaaaaaacjjjrrrrtuuuuuuxxyuvqqqqmmmmmddddcccc
abaacccaaaaaaccaaaaaccccccccccccccccccaaaaccccaaaaaaccaaaccccccccccccccccccaaaaaccccaaaaaccccccccccaaaaaaccjjjrrrtttuuuuuxxyvvvqqqqqmmmmdddcccc
abaaccaaaaaaaaccaaaaaccccccccccccccccaaaaaaaaaaaaaaaacaaacaaaccccccccccccccaacaacaacaacaaccccccccaaaaaaaaccijjqqrtttxxxxxxyyvvvvvqqqqmmmmdddccc
abaaccaaaaaaaacaaaaaaccccccccccccccccaaaaaaaaaaaaaaaaaaaaaaaacccccccccccccccaaacaaaccccccccccaaccaaaaaaaaaciiiqqqttxxxxxxxyyvvvvvvvqqqmmmdddccc
abaaaccccaaccccaaaccacccccccccccccccccaaaaaaccccaacaaaaaaaaaaccaaaccccccccccaaaaaaaccccccccccaaaaaaaaaaaaaaiiiqqqtttxxxxxxyyyyyyvvvqqqmmmdddccc
SbaaaccccaacccccccccccccccccccccccccaaaaaaaaccccaacccaaaaaaccaaaaaaccccccccccaaaaaacccccccccccaaaaacaaacaaaaiiiqqqttxxxxEzzyyyyyvvvqqqmmmdddccc
abaaaccccccccccccccccccccccccccccccaaaaaaaaaaccccccccaaaaaaccaaaaaaccccccccccaaaaaaaaccccccccaaaaaacaaaccaaaiiiqqqtttxxxyyyyyyvvvvqqqmmmdddcccc
abaccccccaacccccccccccccccccccccccccaaaaaaaaaaaacccccaaaaaaacaaaaaacccccccccaaaaaaaaacccccccaaaaaaaacaaaaaaaiiiqqqtttxxyyyyyyvvvvqqqqnnmeddcccc
abccccccaaaaccccccccccccaaaccccccccccccaaaaaaaaaaacccaaacaaacaaaaacccccccccaaaaaaaaaacccccccaaaaaaaaccaaaaaaaiiiqqtttxxyyyyyywvrrrrnnnneeeccccc
abccccccaaaacccccaacccccaaaacccccccccccaaaccaaaaaacccacccccccaaaaacccccccccaaacaaacccccccccccccaacccccccaaaaaiiqqqttxxwywwyyywwrrrnnnneeeeccccc
abccccccaaaaccaacaaaccccaaaaccccccaacccaacccaaaaaccccccccccccccccccccccccccccccaaacccccccccccccaaccccccaaaaaaiiqqqttwwwwwwwwywwrrrnnneeeecccccc
abccccccccccccaaaaacccccaaaccccacaaacccccccccaaaaacccccccccccccccccccccccccccccaaacccccccccccccccccccccaaaaaaiiqqpsswwwwsswwwwwrrnnneeeeccccccc
abcccccccccccccaaaaaacccccccccaaaaacaacccccccaacaacccccaaccccccccccccccccccccccccccccccccccccccccccccccaccaahhhpppssssssssswwwwrrnnneeeaccccccc
abcccccccccccaaaaaaaacccccccccaaaaaaaacccccaaccccccaaacaaccccccccccccccccccccccccccccccccccccaaaccaccccccccchhhpppsssssssssswwrrrnnneeeaaaacccc
abcccccccccccaaaaacaacccccccccccaaaaaccaaaaaaccccccaaaaaaccccccccccccccccccccccccccccaaccaaccaaaaaacccccccccchhpppppsspppossrrrrrnnneeeaaaacccc
abccccccccccccacaaaccccccccccccaaaaacccaaaaaaaacccccaaaaaaaccaaaccccccccaaaacccccccccaaaaaacccaaaaacccccccccchhhpppppppppoosrrrroonffeaaaaacccc
abccccccccccccccaaaccccccccccccaacaaaccaaaaaaaaccccaaaaaaaaacaaaccccccccaaaacccccccccaaaaaccaaaaaaacccccccccchhhhpppppppoooooooooonfffaaaaccccc
abcccccccccccccccccccccccaaaccccccaaccccaaaaaaaccccaaaaaaaaaaaaaaaccccccaaaacccccccccaaaaaacaaaaaaaacccccaacchhhhhhhhgggggoooooooofffaaaaaacccc
abcccccccccccccccccccccccaaaaacccaacccccaaaaaccccccaaaaaacaaaaaaaaccccccaaacccccccccaaaaaaaaaaaaaaaaccccaaacccchhhhhgggggggooooooffffaaaaaacccc
abccaaacccccccccccccccccaaaaaaccaaaccccaaaaaacccccccccaaacccaaaaacccccccccccccccccccaaaaaaaaccaaacacccccaaacaaachhhggggggggggfffffffcaacccccccc
abcaaaaccccccccccaacccccaaaaaaccaaacaaaccccaaccccccccccccccaaaaacccccccccccccccccccccccaacccccaaaccccaaaaaaaaaacccccccccaagggffffffcccccccccccc
abcaaaaccccccccccaaccccccaaaaaaaaaaaaaaccccccccccccccccccccaaaaaaccccccccccccccccccccccaaccccccccccccaaaaaaaaaccccccccccaaacgfffffcccccccccccaa
abccaaacccccccaaaaaaaacccaaaaaaaaaaaaaaccccccccaaaaaccaaaaaaaaaaaaaacaacccccccccaaaccacccccccccccccccccaaaaacccccccccccaaaaccccccccccccccccccaa
abccccccccccccaaaaaaaacccccccccaaaaaaccccccccccaaaaaccaaaaaaaaaaaaaacaaaaaacccccaaaaaacccccccccccccccccaaaaaacccccccccccaacccccccccccccccacacaa
abccccccccccccccaaaacccccccccccaaaaaacccccccccaaaaaacccaaaaaaaaaaaaacaaaaaacccccaaaaaacccccccccccccccccaaaaaaaccccccccccaacccccccccccccccaaaaaa
abcccccccccccccaaaaaaccccccccccaaaaaaaccccccccaaaaaaccccccaaaaaacccaaaaaaaaccccaaaaaaaaccccccccccccccccaaacaaacccccccccccccccccccccccccccaaaaaa